set VV := 0 1 2 3 4 5 6 7 8 9 10 11 12 13 14 15 16 17 18 19 20 21 ;
set VS := 0 1 2 3 4 5 6 7 8 9 10 11 12 13 14 15 16 17 18 19 20 21 22 23 24 25 26 27 28 29 30 31 32 33 34 35 36 37 38 39 40 41 42 43 44 45 46 47 48 ;
param cv := 
0 18
1 25
2 12
3 18
4 22
5 11
6 17
7 11
8 23
9 18
10 21
11 13
12 19
13 13
14 21
15 22
16 23
17 14
18 15
19 24
20 21
21 24
;
param cs := 
0 24
1 27
2 38
3 33
4 32
5 21
6 29
7 36
8 23
9 38
10 40
11 21
12 30
13 35
14 38
15 28
16 38
17 36
18 25
19 28
20 32
21 22
22 39
23 24
24 29
25 30
26 26
27 22
28 22
29 26
30 21
31 25
32 33
33 26
34 37
35 25
36 23
37 36
38 40
39 39
40 39
41 36
42 31
43 28
44 27
45 34
46 22
47 28
48 32
;
param bv:	 0 1 2 3 4 5 6 7 8 9 10 11 12 13 14 15 16 17 18 19 20 21 := 
		0 0 0 0 20 0 11 0 0 0 0 0 0 0 0 24 15 0 0 0 0 0 0 
		1 0 0 0 0 0 0 14 0 0 0 0 0 0 0 0 0 0 0 0 0 0 0 
		2 0 0 0 0 0 0 0 0 0 0 0 0 0 11 0 0 0 0 0 0 0 25 
		3 0 0 0 0 0 0 0 0 0 0 0 0 0 0 13 10 21 0 0 0 0 0 
		4 0 0 0 0 0 0 0 0 0 0 0 0 0 20 0 16 0 0 0 10 0 0 
		5 0 0 0 0 0 0 0 0 0 0 0 0 0 0 12 0 0 0 0 0 24 19 
		6 0 0 0 0 0 0 0 0 24 0 0 0 13 0 0 0 0 0 0 0 0 0 
		7 0 0 0 0 0 0 0 0 0 0 0 0 0 0 0 0 0 0 14 0 0 0 
		8 0 0 0 0 0 0 0 0 0 0 0 0 0 0 0 0 0 0 0 0 11 0 
		9 0 0 0 0 0 0 0 0 0 0 0 0 0 0 16 0 0 0 0 0 0 0 
		10 0 0 0 0 0 0 0 0 0 0 0 0 15 0 0 0 0 0 0 0 0 0 
		11 0 0 0 0 0 0 0 0 0 0 0 0 0 0 18 0 0 0 19 0 0 0 
		12 0 0 0 0 0 0 0 0 0 0 0 0 0 0 0 0 0 0 0 0 0 0 
		13 0 0 0 0 0 0 0 0 0 0 0 0 0 0 0 0 0 11 0 0 0 0 
		14 0 0 0 0 0 0 0 0 0 0 0 0 0 0 0 0 0 0 0 0 0 0 
		15 0 0 0 0 0 0 0 0 0 0 0 0 0 0 0 0 0 0 0 0 10 0 
		16 0 0 0 0 0 0 0 0 0 0 0 0 0 0 0 0 0 0 0 0 0 0 
		17 0 0 0 0 0 0 0 0 0 0 0 0 0 0 0 0 0 0 0 0 16 0 
		18 0 0 0 0 0 0 0 0 0 0 0 0 0 0 0 0 0 0 0 0 0 0 
		19 0 0 0 0 0 0 0 0 0 0 0 0 0 0 0 0 0 0 0 0 0 0 
		20 0 0 0 0 0 0 0 0 0 0 0 0 0 0 0 0 0 0 0 0 0 0 
		21 0 0 0 0 0 0 0 0 0 0 0 0 0 0 0 0 0 0 0 0 0 0 
;
param bs:	 0 1 2 3 4 5 6 7 8 9 10 11 12 13 14 15 16 17 18 19 20 21 22 23 24 25 26 27 28 29 30 31 32 33 34 35 36 37 38 39 40 41 42 43 44 45 46 47 48 := 
		0 0 0 0 0 0 0 0 0 0 0 32 0 0 0 0 0 0 0 0 0 0 0 0 0 23 23 0 0 0 31 0 0 0 0 0 0 28 21 0 0 0 0 0 0 0 0 30 0 0 
		1 0 0 36 0 0 0 0 0 0 0 0 31 21 0 0 0 0 24 0 0 0 0 0 0 0 33 0 0 0 0 0 0 0 0 0 0 0 0 0 40 28 0 0 0 0 24 0 0 0 
		2 0 36 0 0 0 32 0 0 0 0 37 0 0 27 0 0 0 25 0 0 0 0 0 0 0 0 0 34 0 20 0 0 0 0 0 0 0 0 0 0 0 0 0 0 0 23 0 0 0 
		3 0 0 0 0 0 0 0 0 0 0 0 0 0 23 0 0 0 0 0 0 34 0 0 0 0 0 0 0 0 0 0 32 0 0 0 0 33 0 0 0 0 0 0 0 0 0 0 36 0 
		4 0 0 0 0 0 0 0 0 23 0 0 0 0 0 38 0 0 0 0 0 21 0 0 0 0 0 24 0 0 0 0 0 0 0 0 0 0 0 0 0 0 0 36 0 0 39 0 0 0 
		5 0 0 32 0 0 0 39 0 0 36 0 0 0 0 0 0 0 0 0 0 0 0 0 34 0 27 0 0 0 0 0 38 28 0 0 23 0 25 0 22 0 0 0 0 0 0 0 0 31 
		6 0 0 0 0 0 39 0 0 0 0 27 0 0 0 0 0 0 0 0 0 0 0 0 0 0 31 0 0 0 24 0 0 0 0 0 0 0 0 0 32 0 0 0 26 0 0 25 0 0 
		7 0 0 0 0 0 0 0 0 0 32 0 0 0 0 0 0 0 0 0 0 0 0 0 0 0 0 0 0 0 0 0 32 0 0 37 0 0 0 0 0 0 0 0 0 33 0 0 0 0 
		8 0 0 0 0 23 0 0 0 0 0 0 0 0 0 0 0 0 0 0 0 0 0 0 0 0 0 0 0 0 0 0 0 0 0 0 0 0 30 0 0 0 0 0 0 0 0 0 0 0 
		9 0 0 0 0 0 36 0 32 0 0 0 0 0 0 0 0 0 0 24 0 0 0 0 0 0 0 0 0 0 0 0 0 0 0 0 0 0 0 0 0 0 0 0 0 0 0 29 0 0 
		10 32 0 37 0 0 0 27 0 0 0 0 0 0 36 0 0 26 0 0 0 0 0 0 35 0 0 0 0 0 0 0 0 0 0 0 0 27 0 0 0 24 0 0 31 23 36 0 0 0 
		11 0 31 0 0 0 0 0 0 0 0 0 0 0 39 0 0 0 0 0 0 36 0 0 0 0 0 0 0 0 0 0 0 0 0 0 0 0 0 25 0 0 0 0 0 0 37 0 0 0 
		12 0 21 0 0 0 0 0 0 0 0 0 0 0 0 0 0 27 0 0 0 0 0 0 0 28 0 0 0 0 0 0 0 40 0 0 35 0 0 0 22 0 0 0 0 0 0 0 0 0 
		13 0 0 27 23 0 0 0 0 0 0 36 39 0 0 0 0 0 32 0 0 0 0 0 37 0 0 0 25 0 0 0 0 0 0 0 0 0 0 0 0 0 24 0 0 40 0 0 0 0 
		14 0 0 0 0 38 0 0 0 0 0 0 0 0 0 0 0 0 0 0 0 0 29 0 36 0 0 0 0 0 0 0 0 0 0 35 0 0 0 0 0 0 0 0 0 0 0 0 0 0 
		15 0 0 0 0 0 0 0 0 0 0 0 0 0 0 0 0 0 0 0 0 0 0 0 0 0 0 0 0 0 0 0 0 35 0 0 0 0 0 0 0 0 0 0 0 0 0 0 0 0 
		16 0 0 0 0 0 0 0 0 0 0 26 0 27 0 0 0 0 0 0 0 0 0 0 0 0 0 0 0 0 0 0 39 0 0 0 0 0 0 0 0 0 0 0 21 0 0 0 0 0 
		17 0 24 25 0 0 0 0 0 0 0 0 0 0 32 0 0 0 0 0 0 0 0 0 0 0 0 0 0 0 0 0 0 0 24 0 0 0 0 0 0 0 31 0 0 39 0 0 25 30 
		18 0 0 0 0 0 0 0 0 0 24 0 0 0 0 0 0 0 0 0 0 0 0 0 0 0 0 0 0 0 0 0 0 0 0 0 28 0 0 0 0 0 0 0 0 0 0 0 0 0 
		19 0 0 0 0 0 0 0 0 0 0 0 0 0 0 0 0 0 0 0 0 0 0 0 0 0 0 0 0 0 0 0 26 0 0 0 0 0 0 22 0 0 0 0 0 26 0 0 0 0 
		20 0 0 0 34 21 0 0 0 0 0 0 36 0 0 0 0 0 0 0 0 0 0 0 0 0 0 0 0 0 0 0 0 0 0 0 0 0 0 0 0 0 0 0 0 0 0 0 28 0 
		21 0 0 0 0 0 0 0 0 0 0 0 0 0 0 29 0 0 0 0 0 0 0 0 0 0 0 0 0 0 0 0 29 0 0 0 26 0 0 0 0 0 0 0 0 0 0 0 0 0 
		22 0 0 0 0 0 0 0 0 0 0 0 0 0 0 0 0 0 0 0 0 0 0 0 0 27 0 0 0 0 0 0 0 0 0 22 0 0 0 0 40 0 0 0 0 0 0 0 0 0 
		23 0 0 0 0 0 34 0 0 0 0 35 0 0 37 36 0 0 0 0 0 0 0 0 0 0 0 0 0 0 0 0 0 0 0 0 0 0 0 0 0 40 0 0 31 0 0 0 0 0 
		24 23 0 0 0 0 0 0 0 0 0 0 0 28 0 0 0 0 0 0 0 0 0 27 0 0 0 38 0 0 0 0 0 0 0 0 0 0 0 0 24 0 0 37 0 0 0 0 0 0 
		25 23 33 0 0 0 27 31 0 0 0 0 0 0 0 0 0 0 0 0 0 0 0 0 0 0 0 0 0 0 38 0 0 0 0 0 0 0 33 0 0 0 0 0 0 0 0 0 0 34 
		26 0 0 0 0 24 0 0 0 0 0 0 0 0 0 0 0 0 0 0 0 0 0 0 0 38 0 0 0 35 23 0 0 0 0 0 0 0 0 0 0 0 0 0 0 0 0 0 0 0 
		27 0 0 34 0 0 0 0 0 0 0 0 0 0 25 0 0 0 0 0 0 0 0 0 0 0 0 0 0 0 0 0 0 0 0 30 0 0 40 0 0 0 0 0 0 0 0 0 0 0 
		28 0 0 0 0 0 0 0 0 0 0 0 0 0 0 0 0 0 0 0 0 0 0 0 0 0 0 35 0 0 0 0 0 0 0 0 0 0 0 0 0 0 0 0 38 0 0 0 0 0 
		29 31 0 20 0 0 0 24 0 0 0 0 0 0 0 0 0 0 0 0 0 0 0 0 0 0 38 23 0 0 0 0 0 0 0 0 0 0 0 0 0 0 0 0 27 0 31 0 0 0 
		30 0 0 0 0 0 0 0 0 0 0 0 0 0 0 0 0 0 0 0 0 0 0 0 0 0 0 0 0 0 0 0 0 0 0 0 0 31 0 0 0 0 0 0 0 0 40 0 0 0 
		31 0 0 0 32 0 38 0 32 0 0 0 0 0 0 0 0 39 0 0 26 0 29 0 0 0 0 0 0 0 0 0 0 0 0 0 0 0 0 0 0 0 0 0 0 0 0 0 0 0 
		32 0 0 0 0 0 28 0 0 0 0 0 0 40 0 0 35 0 0 0 0 0 0 0 0 0 0 0 0 0 0 0 0 0 0 0 0 0 0 0 0 0 0 0 0 0 0 0 0 0 
		33 0 0 0 0 0 0 0 0 0 0 0 0 0 0 0 0 0 24 0 0 0 0 0 0 0 0 0 0 0 0 0 0 0 0 0 0 0 0 0 0 0 0 0 0 0 0 0 0 0 
		34 0 0 0 0 0 0 0 37 0 0 0 0 0 0 35 0 0 0 0 0 0 0 22 0 0 0 0 30 0 0 0 0 0 0 0 0 0 0 0 0 0 0 0 0 0 0 0 0 0 
		35 0 0 0 0 0 23 0 0 0 0 0 0 35 0 0 0 0 0 28 0 0 26 0 0 0 0 0 0 0 0 0 0 0 0 0 0 0 0 0 0 0 0 0 0 0 0 0 0 0 
		36 28 0 0 33 0 0 0 0 0 0 27 0 0 0 0 0 0 0 0 0 0 0 0 0 0 0 0 0 0 0 31 0 0 0 0 0 0 0 0 0 21 0 0 0 0 0 0 0 0 
		37 21 0 0 0 0 25 0 0 30 0 0 0 0 0 0 0 0 0 0 0 0 0 0 0 0 33 0 40 0 0 0 0 0 0 0 0 0 0 0 0 0 0 0 30 0 0 0 0 0 
		38 0 0 0 0 0 0 0 0 0 0 0 25 0 0 0 0 0 0 0 22 0 0 0 0 0 0 0 0 0 0 0 0 0 0 0 0 0 0 0 0 0 0 0 0 34 0 0 0 0 
		39 0 40 0 0 0 22 32 0 0 0 0 0 22 0 0 0 0 0 0 0 0 0 40 0 24 0 0 0 0 0 0 0 0 0 0 0 0 0 0 0 0 0 0 0 0 0 0 0 0 
		40 0 28 0 0 0 0 0 0 0 0 24 0 0 0 0 0 0 0 0 0 0 0 0 40 0 0 0 0 0 0 0 0 0 0 0 0 21 0 0 0 0 0 0 0 0 0 0 29 0 
		41 0 0 0 0 0 0 0 0 0 0 0 0 0 24 0 0 0 31 0 0 0 0 0 0 0 0 0 0 0 0 0 0 0 0 0 0 0 0 0 0 0 0 0 0 0 0 0 0 0 
		42 0 0 0 0 36 0 0 0 0 0 0 0 0 0 0 0 0 0 0 0 0 0 0 0 37 0 0 0 0 0 0 0 0 0 0 0 0 0 0 0 0 0 0 0 33 0 0 0 0 
		43 0 0 0 0 0 0 26 0 0 0 31 0 0 0 0 0 21 0 0 0 0 0 0 31 0 0 0 0 38 27 0 0 0 0 0 0 0 30 0 0 0 0 0 0 0 0 0 0 0 
		44 0 0 0 0 0 0 0 33 0 0 23 0 0 40 0 0 0 39 0 26 0 0 0 0 0 0 0 0 0 0 0 0 0 0 0 0 0 0 34 0 0 0 33 0 0 0 0 0 0 
		45 0 24 23 0 39 0 0 0 0 0 36 37 0 0 0 0 0 0 0 0 0 0 0 0 0 0 0 0 0 31 40 0 0 0 0 0 0 0 0 0 0 0 0 0 0 0 0 0 0 
		46 30 0 0 0 0 0 25 0 0 29 0 0 0 0 0 0 0 0 0 0 0 0 0 0 0 0 0 0 0 0 0 0 0 0 0 0 0 0 0 0 0 0 0 0 0 0 0 0 0 
		47 0 0 0 36 0 0 0 0 0 0 0 0 0 0 0 0 0 25 0 0 28 0 0 0 0 0 0 0 0 0 0 0 0 0 0 0 0 0 0 0 29 0 0 0 0 0 0 0 0 
		48 0 0 0 0 0 31 0 0 0 0 0 0 0 0 0 0 0 30 0 0 0 0 0 0 0 34 0 0 0 0 0 0 0 0 0 0 0 0 0 0 0 0 0 0 0 0 0 0 0 
;
